Instance: E121-07c.dat
Class:  2
120 --- number of customers (no depot)
23 --- number of vehicles
183 --- number of items
Capacity - height - width of vehicles
   200     40     20
Node - x - y - demand  Readytime Duetime
  0.00   10.00  45.00   0.00 0       1380.00
  1.00   25.00   1.00  25.00 1054.00  1096.00
  2.00   25.00   3.00   7.00 323.00  364.00
  3.00   31.00   5.00  13.00 171.00  205.00
  4.00   32.00   5.00   6.00 215.00  245.00
  5.00   31.00   7.00  14.00 1207.00  1241.00
  6.00   32.00   9.00   5.00  95.00  129.00
  7.00   34.00   9.00  11.00  70.00  115.00
  8.00   46.00   9.00  19.00 143.00  188.00
  9.00   35.00   7.00   5.00 579.00  612.00
 10.00   34.00   6.00  15.00 729.00  763.00
 11.00   35.00   5.00  15.00 669.00  709.00
 12.00   47.00   6.00  17.00 977.00  1018.00
 13.00   40.00   5.00  13.00 854.00  886.00
 14.00   39.00   3.00  12.00 335.00  365.00
 15.00   36.00   3.00  18.00  22.00   99.00
 16.00   73.00   6.00  13.00 512.00  554.00
 17.00   73.00   8.00  18.00 674.00  705.00
 18.00   24.00  36.00  12.00 409.00  450.00
 19.00   76.00   6.00  17.00 327.00  371.00
 20.00   76.00  10.00   4.00 498.00  541.00
 21.00   76.00  13.00   7.00 589.00  630.00
 22.00   78.00   3.00  12.00 1150.00  1191.00
 23.00   78.00   9.00  13.00  43.00   99.00
 24.00   79.00   3.00   8.00 1115.00  1154.00
 25.00   79.00   5.00  16.00 407.00  442.00
 26.00   79.00  11.00  15.00 720.00  756.00
 27.00   82.00   3.00   6.00 648.00  679.00
 28.00   82.00   7.00   5.00 790.00  832.00
 29.00   90.00  15.00   9.00 1127.00  1158.00
 30.00   84.00   3.00  11.00 1160.00  1192.00
 31.00   84.00   5.00  10.00 848.00  888.00
 32.00   84.00   9.00   3.00 165.00  206.00
 33.00   85.00   1.00   7.00 610.00  641.00
 34.00   87.00   5.00   2.00 1085.00  1129.00
 35.00   85.00   8.00   4.00 421.00  458.00
 36.00   87.00   7.00   4.00 183.00  228.00
 37.00   86.00  41.00  18.00  41.00   99.00
 38.00   86.00  44.00  14.00 1155.00  1200.00
 39.00   86.00  46.00  12.00  38.00   99.00
 40.00   85.00  55.00  17.00 671.00  701.00
 41.00   89.00  43.00  20.00 363.00  401.00
 42.00   89.00  46.00  14.00 1177.00  1218.00
 43.00   89.00  52.00  16.00 997.00  1036.00
 44.00   92.00  42.00  10.00 376.00  411.00
 45.00   92.00  52.00   9.00 795.00  829.00
 46.00   94.00  42.00  11.00 160.00  199.00
 47.00   94.00  44.00   7.00 900.00  934.00
 48.00   94.00  48.00  13.00 107.00  137.00
 49.00   96.00  42.00   5.00 993.00  1035.00
 50.00   99.00  46.00   4.00 440.00  481.00
 51.00   99.00  50.00  21.00 261.00  303.00
 52.00   83.00  80.00  13.00 1037.00  1082.00
 53.00   83.00  83.00  11.00 454.00  496.00
 54.00   85.00  81.00  12.00 1081.00  1115.00
 55.00   85.00  85.00  14.00 294.00  329.00
 56.00   85.00  89.00  10.00 1210.00  1247.00
 57.00   87.00  80.00   8.00  89.00  131.00
 58.00   87.00  86.00  16.00 244.00  277.00
 59.00   90.00  77.00  19.00 311.00  352.00
 60.00   90.00  88.00   5.00 779.00  809.00
 61.00   93.00  82.00  17.00 1187.00  1224.00
 62.00   93.00  84.00   7.00 513.00  552.00
 63.00   93.00  89.00  16.00  33.00   99.00
 64.00   94.00  86.00  14.00 458.00  499.00
 65.00   95.00  80.00  17.00 384.00  421.00
 66.00   99.00  89.00  13.00 963.00  1004.00
 67.00   37.00  83.00  17.00 260.00  302.00
 68.00   50.00  80.00  13.00 301.00  346.00
 69.00   35.00  85.00  14.00 498.00  535.00
 70.00   35.00  87.00  16.00 723.00  756.00
 71.00   44.00  86.00   7.00 942.00  977.00
 72.00   46.00  89.00  13.00  26.00   99.00
 73.00   46.00  83.00   9.00 104.00  141.00
 74.00   46.00  87.00  11.00 445.00  481.00
 75.00   46.00  89.00  35.00 195.00  231.00
 76.00   48.00  83.00   5.00 982.00  1014.00
 77.00   50.00  85.00  28.00 178.00  213.00
 78.00   50.00  88.00   7.00 537.00  579.00
 79.00   54.00  86.00   3.00 555.00  595.00
 80.00   54.00  90.00  10.00 1187.00  1231.00
 81.00   10.00  35.00   7.00 634.00  667.00
 82.00   10.00  40.00  12.00 936.00  970.00
 83.00   18.00  30.00  11.00 135.00  176.00
 84.00   17.00  35.00  10.00 564.00  607.00
 85.00   16.00  38.00   8.00 316.00  359.00
 86.00   14.00  40.00  11.00 1231.00  1275.00
 87.00   15.00  42.00  21.00 848.00  882.00
 88.00   11.00  42.00   4.00 325.00  366.00
 89.00   18.00  40.00  15.00 535.00  574.00
 90.00   21.00  39.00  16.00 104.00  149.00
 91.00   20.00  40.00   4.00 322.00  363.00
 92.00   18.00  41.00  16.00 382.00  420.00
 93.00   20.00  44.00   7.00 818.00  859.00
 94.00   22.00  44.00  10.00 1139.00  1170.00
 95.00   16.00  45.00   9.00 976.00  1011.00
 96.00   20.00  45.00  11.00 780.00  825.00
 97.00   25.00  45.00  17.00 772.00  807.00
 98.00   30.00  55.00  12.00 559.00  600.00
 99.00   20.00  50.00  11.00 174.00  204.00
100.00   22.00  51.00   7.00 1121.00  1153.00
101.00   18.00  49.00   9.00 332.00  377.00
102.00   16.00  48.00  11.00 176.00  217.00
103.00   20.00  55.00  12.00  34.00   99.00
104.00   18.00  53.00   7.00 206.00  245.00
105.00   14.00  50.00   8.00 1168.00  1207.00
106.00   15.00  51.00   6.00 751.00  785.00
107.00   16.00  54.00   5.00 969.00  999.00
108.00   28.00  33.00  12.00  18.00   99.00
109.00   33.00  38.00  13.00 261.00  297.00
110.00   30.00  50.00   7.00 801.00  845.00
111.00   13.00  40.00   7.00 976.00  1021.00
112.00   15.00  36.00   8.00 1233.00  1265.00
113.00   18.00  31.00  11.00 697.00  742.00
114.00   25.00  37.00  13.00 799.00  830.00
115.00   30.00  46.00  11.00 1188.00  1227.00
116.00   25.00  52.00  10.00 396.00  441.00
117.00   16.00  33.00   7.00 1202.00  1246.00
118.00   25.00  35.00   4.00 125.00  162.00
119.00    5.00  40.00  20.00 975.00  1005.00
120.00    5.00  50.00  13.00 1226.00  1265.00
Node - number of items - h - w for each item
    0   0
    1   1    1    1
    2   1    1    1
    3   1    1    1
    4   1    1    1
    5   1    1    1
    6   1    1    1
    7   1    1    1
    8   1    1    1
    9   1    1    1
   10   1    1    1
   11   1    1    1
   12   1    1    1
   13   1    1    1
   14   1    1    1
   15   1    1    1
   16   1    1    1
   17   1    1    1
   18   1    1    1
   19   1    1    1
   20   1    1    1
   21   1    1    1
   22   1    1    1
   23   1    1    1
   24   1    1    1
   25   1    1    1
   26   1    1    1
   27   1    1    1
   28   1    1    1
   29   1    1    1
   30   1    1    1
   31   1    1    1
   32   1    1    1
   33   1    1    1
   34   1    1    1
   35   1    1    1
   36   1    1    1
   37   1    1    1
   38   1    1    1
   39   1    1    1
   40   1    1    1
   41   1    1    1
   42   1    1    1
   43   1    1    1
   44   1    1    1
   45   1    1    1
   46   1    1    1
   47   1    1    1
   48   1    1    1
   49   1    1    1
   50   1    1    1
   51   1    1    1
   52   1    1    1
   53   1    1    1
   54   1    1    1
   55   1    1    1
   56   1    1    1
   57   1    1    1
   58   1    1    1
   59   1    1    1
   60   1    1    1
   61   1    1    1
   62   1    1    1
   63   1    1    1
   64   1    1    1
   65   1    1    1
   66   1    1    1
   67   1    1    1
   68   1    1    1
   69   1    1    1
   70   1    1    1
   71   1    1    1
   72   1    1    1
   73   1    1    1
   74   1    1    1
   75   1    1    1
   76   1    1    1
   77   1    1    1
   78   1    1    1
   79   1    1    1
   80   1    1    1
   81   1    1    1
   82   1    1    1
   83   1    1    1
   84   1    1    1
   85   1    1    1
   86   1    1    1
   87   1    1    1
   88   1    1    1
   89   1    1    1
   90   1    1    1
   91   1    1    1
   92   1    1    1
   93   1    1    1
   94   1    1    1
   95   1    1    1
   96   1    1    1
   97   1    1    1
   98   1    1    1
   99   1    1    1
  100   1    1    1
  101   1    1    1
  102   1    1    1
  103   1    1    1
  104   1    1    1
  105   1    1    1
  106   1    1    1
  107   1    1    1
  108   1    1    1
  109   1    1    1
  110   1    1    1
  111   1    1    1
  112   1    1    1
  113   1    1    1
  114   1    1    1
  115   1    1    1
  116   1    1    1
  117   1    1    1
  118   1    1    1
  119   1    1    1
  120   1    1    1
